
Gurobi 7.5.2 (linux64) logging started Sat Jun 23 18:18:38 2018

Changed value of parameter LogFile to result/ilp/simNo_10-n_100-m_40-s_4-minVAF_0.05-cov_2000-k_1-fn_0.10-fp_0.0001-na_0.15.ILP.gurobiSolverLog
   Prev: gurobi.log  Default: 
Changed value of parameter TimeLimit to 86400.0
   Prev: 1e+100  Min: 0.0  Max: 1e+100  Default: 1e+100
Optimize a model with 1265601 rows, 330440 columns and 3489120 nonzeros
Variable types: 0 continuous, 330440 integer (330440 binary)
Coefficient statistics:
  Matrix range     [5e-04, 3e+00]
  Objective range  [3e-01, 9e+00]
  Bounds range     [1e+00, 1e+00]
  RHS range        [3e-01, 2e+00]
Found heuristic solution: objective -16109.14304
Presolve removed 336296 rows and 214357 columns (presolve time = 6s) ...
Presolve removed 336782 rows and 214357 columns (presolve time = 10s) ...
Presolve removed 337425 rows and 214357 columns (presolve time = 15s) ...
Presolve removed 337805 rows and 214357 columns (presolve time = 20s) ...
Presolve removed 337805 rows and 214357 columns (presolve time = 27s) ...
Presolve removed 337805 rows and 214357 columns (presolve time = 30s) ...
Presolve removed 337805 rows and 214357 columns (presolve time = 35s) ...
Presolve removed 337805 rows and 214357 columns (presolve time = 40s) ...
Presolve removed 337805 rows and 214357 columns (presolve time = 49s) ...
Presolve removed 337805 rows and 214357 columns (presolve time = 52s) ...
Presolve removed 337805 rows and 214357 columns
Presolve time: 52.31s
Presolved: 927796 rows, 116083 columns, 2573421 nonzeros
Variable types: 0 continuous, 116083 integer (116083 binary)
Presolved: 116083 rows, 1043879 columns, 2689504 nonzeros

Presolve removed 116083 rows and 1043879 columns

Root simplex log...

Iteration    Objective       Primal Inf.    Dual Inf.      Time
       0    5.7554011e+00   0.000000e+00   1.063400e+05     63s
    7966   -2.0909289e+02   0.000000e+00   4.038650e+04     65s
   22291   -3.2170535e+02   0.000000e+00   3.651850e+04     70s
   28020   -3.3791682e+02   0.000000e+00   0.000000e+00     74s
   28020   -3.3791682e+02   0.000000e+00   0.000000e+00     76s

Root relaxation: objective -3.379168e+02, 28020 iterations, 20.16 seconds
Total elapsed time = 109.53s
Total elapsed time = 134.85s
Total elapsed time = 160.78s

    Nodes    |    Current Node    |     Objective Bounds      |     Work
 Expl Unexpl |  Obj  Depth IntInf | Incumbent    BestBd   Gap | It/Node Time

     0     0 -337.91682    0  976 -16109.143 -337.91682  97.9%     -  172s
H    0     0                    -393.5362172 -337.91682  14.1%     -  189s
     0     0 -344.02268    0  901 -393.53622 -344.02268  12.6%     -  234s
     0     0 -345.27332    0 1053 -393.53622 -345.27332  12.3%     -  276s
     0     0 -346.24929    0  965 -393.53622 -346.24929  12.0%     -  313s
     0     0 -346.27697    0  969 -393.53622 -346.27697  12.0%     -  324s
     0     0 -346.28108    0  970 -393.53622 -346.28108  12.0%     -  335s
     0     0 -346.28108    0  970 -393.53622 -346.28108  12.0%     -  342s
     0     0 -346.28108    0  989 -393.53622 -346.28108  12.0%     -  359s
     0     0 -346.47504    0 1129 -393.53622 -346.47504  12.0%     -  387s
     0     0 -346.49526    0 1135 -393.53622 -346.49526  12.0%     -  400s
     0     0 -346.56167    0 1173 -393.53622 -346.56167  11.9%     -  420s
     0     0 -346.56167    0 1173 -393.53622 -346.56167  11.9%     -  429s
     0     0 -347.67842    0 1191 -393.53622 -347.67842  11.7%     -  462s
     0     0 -347.79789    0 1189 -393.53622 -347.79789  11.6%     -  490s
     0     0 -347.90185    0 1189 -393.53622 -347.90185  11.6%     -  506s
     0     0 -347.92178    0 1198 -393.53622 -347.92178  11.6%     -  520s
     0     0 -347.92178    0 1199 -393.53622 -347.92178  11.6%     -  526s
     0     0 -351.19692    0 1066 -393.53622 -351.19692  10.8%     -  586s
     0     0 -351.36108    0 1026 -393.53622 -351.36108  10.7%     -  616s
     0     0 -351.36108    0 1048 -393.53622 -351.36108  10.7%     -  625s
     0     0 -352.97796    0  981 -393.53622 -352.97796  10.3%     -  652s
     0     0 -352.97796    0  980 -393.53622 -352.97796  10.3%     -  667s
     0     0 -354.04499    0 1057 -393.53622 -354.04499  10.0%     -  696s
     0     0 -354.04499    0 1060 -393.53622 -354.04499  10.0%     -  717s
     0     0 -356.27559    0  948 -393.53622 -356.27559  9.47%     -  748s
     0     0 -356.66893    0 1049 -393.53622 -356.66893  9.37%     -  771s
     0     0 -357.08285    0 1050 -393.53622 -357.08285  9.26%     -  786s
     0     0 -357.42953    0 1044 -393.53622 -357.42953  9.17%     -  817s
     0     0 -357.42953    0 1047 -393.53622 -357.42953  9.17%     -  824s
     0     0 -358.39319    0 1013 -393.53622 -358.39319  8.93%     -  854s
     0     0 -358.47460    0 1022 -393.53622 -358.47460  8.91%     -  874s
     0     0 -358.49793    0  970 -393.53622 -358.49793  8.90%     -  883s
     0     0 -358.57400    0  970 -393.53622 -358.57400  8.88%     -  896s
     0     0 -360.10147    0  936 -393.53622 -360.10147  8.50%     -  928s
     0     0 -360.49068    0  988 -393.53622 -360.49068  8.40%     -  948s
     0     0 -362.90313    0 1089 -393.53622 -362.90313  7.78%     - 1001s
     0     0 -363.19115    0  987 -393.53622 -363.19115  7.71%     - 1026s
     0     0 -363.28241    0 1114 -393.53622 -363.28241  7.69%     - 1038s
     0     0 -363.29795    0 1115 -393.53622 -363.29795  7.68%     - 1047s
     0     0 -363.29795    0 1116 -393.53622 -363.29795  7.68%     - 1054s
     0     0 -364.65869    0 1125 -393.53622 -364.65869  7.34%     - 1078s
     0     0 -364.65869    0 1126 -393.53622 -364.65869  7.34%     - 1096s
     0     0 -371.49909    0  894 -393.53622 -371.49909  5.60%     - 1199s
     0     0 -371.51967    0  970 -393.53622 -371.51967  5.59%     - 1223s
     0     0 -371.81467    0  979 -393.53622 -371.81467  5.52%     - 1244s
     0     0 -371.81467    0  979 -393.53622 -371.81467  5.52%     - 1253s
     0     0 -372.11997    0  990 -393.53622 -372.11997  5.44%     - 1288s
     0     0 -372.42526    0  992 -393.53622 -372.42526  5.36%     - 1312s
     0     0 -372.42526    0  881 -393.53622 -372.42526  5.36%     - 1322s
     0     0 -373.35143    0  836 -393.53622 -373.35143  5.13%     - 1349s
     0     0 -373.35143    0  798 -393.53622 -373.35143  5.13%     - 1366s
     0     0 -373.35143    0  863 -393.53622 -373.35143  5.13%     - 1382s
     0     0 -373.65673    0  920 -393.53622 -373.65673  5.05%     - 1404s
     0     0 -373.75849    0  915 -393.53622 -373.75849  5.03%     - 1419s
     0     0 -373.75849    0  922 -393.53622 -373.75849  5.03%     - 1427s
     0     0 -374.87790    0  712 -393.53622 -374.87790  4.74%     - 1607s
     0     0 -375.17534    0  869 -393.53622 -375.17534  4.67%     - 1642s
     0     0 -375.18320    0  822 -393.53622 -375.18320  4.66%     - 1653s
     0     0 -375.57845    0  775 -393.53622 -375.57845  4.56%     - 1670s
     0     0 -375.57845    0  763 -393.53622 -375.57845  4.56%     - 1678s
     0     0 -375.76578    0  793 -393.53622 -375.76578  4.52%     - 1698s
     0     0 -376.26870    0  857 -393.53622 -376.26870  4.39%     - 1726s
     0     0 -376.26870    0  810 -393.53622 -376.26870  4.39%     - 1736s
     0     0 -377.16458    0  943 -393.53622 -377.16458  4.16%     - 1799s
     0     0 -377.20668    0  830 -393.53622 -377.20668  4.15%     - 1821s
     0     0 -377.20668    0  774 -393.53622 -377.20668  4.15%     - 1830s
     0     0 -377.20668    0  812 -393.53622 -377.20668  4.15%     - 1846s
     0     0 -377.20668    0  819 -393.53622 -377.20668  4.15%     - 1860s
     0     0 -377.78982    0  823 -393.53622 -377.78982  4.00%     - 1890s
     0     0 -377.83463    0  822 -393.53622 -377.83463  3.99%     - 1911s
     0     0 -377.85412    0  836 -393.53622 -377.85412  3.98%     - 1923s
     0     0 -377.87686    0  816 -393.53622 -377.87686  3.98%     - 1933s
     0     0 -377.96537    0  892 -393.53622 -377.96537  3.96%     - 1950s
     0     0 -378.00707    0  914 -393.53622 -378.00707  3.95%     - 1968s
     0     0 -378.00707    0  867 -393.53622 -378.00707  3.95%     - 1978s
     0     0 -378.83491    0  877 -393.53622 -378.83491  3.74%     - 2000s
     0     0 -378.83491    0  883 -393.53622 -378.83491  3.74%     - 2015s
     0     0 -379.21452    0  889 -393.53622 -379.21452  3.64%     - 2038s
     0     0 -379.27007    0  887 -393.53622 -379.27007  3.63%     - 2054s
     0     0 -379.51594    0  874 -393.53622 -379.51594  3.56%     - 2070s
     0     0 -379.52771    0  950 -393.53622 -379.52771  3.56%     - 2079s
     0     0 -379.62158    0  871 -393.53622 -379.62158  3.54%     - 2090s
     0     0 -379.62158    0  868 -393.53622 -379.62158  3.54%     - 2098s
     0     0 -379.62158    0  813 -393.53622 -379.62158  3.54%     - 2114s
     0     0 -379.92687    0  863 -393.53622 -379.92687  3.46%     - 2133s
     0     0 -379.92687    0  865 -393.53622 -379.92687  3.46%     - 2142s
     0     0 -380.59851    0  882 -393.53622 -380.59851  3.29%     - 2164s
     0     0 -380.84275    0  872 -393.53622 -380.84275  3.23%     - 2180s
     0     0 -380.84275    0  877 -393.53622 -380.84275  3.23%     - 2187s
     0     0 -380.97844    0  880 -393.53622 -380.97844  3.19%     - 2205s
     0     0 -380.97844    0  877 -393.53622 -380.97844  3.19%     - 2217s
     0     0 -380.97844    0  876 -393.53622 -380.97844  3.19%     - 2232s
     0     0 -381.01720    0  889 -393.53622 -381.01720  3.18%     - 2249s
     0     0 -381.01720    0  889 -393.53622 -381.01720  3.18%     - 2258s
     0     0 -381.14804    0  857 -393.53622 -381.14804  3.15%     - 2383s
     0     0 -381.24981    0  874 -393.53622 -381.24981  3.12%     - 2398s
     0     0 -381.24981    0  876 -393.53622 -381.24981  3.12%     - 2406s
     0     0 -381.45334    0  867 -393.53622 -381.45334  3.07%     - 2423s
     0     0 -382.06392    0  859 -393.53622 -382.06392  2.92%     - 2440s
     0     0 -382.15115    0  876 -393.53622 -382.15115  2.89%     - 2451s
     0     0 -382.15115    0  879 -393.53622 -382.15115  2.89%     - 2458s
     0     0 -382.55239    0  788 -393.53622 -382.55239  2.79%     - 2474s
     0     0 -382.55239    0  791 -393.53622 -382.55239  2.79%     - 2486s
     0     0 -382.67451    0  800 -393.53622 -382.67451  2.76%     - 2502s
     0     0 -382.87804    0  752 -393.53622 -382.87804  2.71%     - 2517s
     0     0 -382.91874    0  870 -393.53622 -382.91874  2.70%     - 2528s
     0     0 -382.91874    0  869 -393.53622 -382.91874  2.70%     - 2535s
     0     0 -382.91874    0  874 -393.53622 -382.91874  2.70%     - 2548s
     0     0 -383.28510    0  838 -393.53622 -383.28510  2.60%     - 2564s
     0     0 -383.28510    0  874 -393.53622 -383.28510  2.60%     - 2571s
     0     0 -383.28510    0  873 -393.53622 -383.28510  2.60%     - 2583s
     0     0 -383.28510    0  877 -393.53622 -383.28510  2.60%     - 2595s
     0     0 -383.28510    0  830 -393.53622 -383.28510  2.60%     - 2607s
     0     0 -383.28510    0  791 -393.53622 -383.28510  2.60%     - 2618s
     0     0 -383.45955    0  776 -393.53622 -383.45955  2.56%     - 2705s
     0     0 -383.69215    0  766 -393.53622 -383.69215  2.50%     - 2721s
     0     0 -383.69215    0  718 -393.53622 -383.69215  2.50%     - 2730s
     0     0 -383.69215    0  756 -393.53622 -383.69215  2.50%     - 2743s
     0     0 -383.69215    0  749 -393.53622 -383.69215  2.50%     - 2754s
     0     0 -383.69215    0  730 -393.53622 -383.69215  2.50%     - 2768s
     0     0 -383.69215    0  728 -393.53622 -383.69215  2.50%     - 2778s
     0     0 -383.69215    0  720 -393.53622 -383.69215  2.50%     - 2885s
     0     0 -383.69215    0  720 -393.53622 -383.69215  2.50%     - 2918s
     0     2 -383.69649    0  720 -393.53622 -383.69649  2.50%     - 3068s
     1     3 -385.28305    1  600 -393.53622 -383.70533  2.50%  2318 3086s
     2     4 -386.50422    2  499 -393.53622 -383.70533  2.50%  1266 3091s
     3     3     cutoff    2      -393.53622 -383.70533  2.50%  1033 3099s
     4     4 -387.72540    3  496 -393.53622 -383.70533  2.50%   828 3104s
     5     3     cutoff    3      -393.53622 -383.70533  2.50%   747 3109s
     6     4 -388.94657    4  494 -393.53622 -383.70533  2.50%   641 3112s
     7     5 -390.16774    5  570 -393.53622 -383.70533  2.50%   598 3118s
     8     4     cutoff    5      -393.53622 -383.70533  2.50%   596 3123s
     9     5 -390.16774    6  494 -393.53622 -383.70533  2.50%   530 3125s
    12     6 -392.61009    8  480 -393.53622 -383.70533  2.50%   417 3130s
    16     4 -386.23715    1  821 -393.53622 -386.23715  1.85%   597 3163s
    17     5 -387.07869    2  821 -393.53622 -386.24090  1.85%   588 3171s
    18     6 -388.76235    3  823 -393.53622 -386.24090  1.85%   597 3183s
    19     7 -389.93029    4  235 -393.53622 -386.24090  1.85%   580 3188s
    20     6     cutoff    5      -393.53622 -386.24090  1.85%   568 3191s
    22     8 -391.19563    6  697 -393.53622 -386.24090  1.85%   539 3196s
    25     9 -392.72210    8  202 -393.53622 -386.24090  1.85%   483 3200s
    31     7 -390.85057    2  707 -393.53622 -387.10064  1.64%   468 3221s
    33     7     cutoff    4      -393.53622 -387.10064  1.64%   450 3227s
    35     9 -392.80445    5  314 -393.53622 -387.10064  1.64%   429 3232s
    37     9 -392.80445    6  296 -393.53622 -387.10064  1.64%   409 3235s
    43     5     cutoff    3      -393.53622 -387.72540  1.48%   387 3253s
    44     4     cutoff    4      -393.53622 -388.78243  1.21%   382 3256s
    47     1     cutoff    3      -393.53622 -391.44980  0.53%   367 3260s

Cutting planes:
  Gomory: 1
  Zero half: 258

Explored 49 nodes (160246 simplex iterations) in 3261.82 seconds
Thread count was 1 (of 80 available processors)

Solution count 2: -393.536 -16109.1 

Optimal solution found (tolerance 1.00e-04)
Best objective -3.935362172229e+02, best bound -3.935362172229e+02, gap 0.0000%
